; benchmark generated from python API
(set-info :status unknown)
(declare-datatypes ((IntState 0)) (((Mk1 (val1 Int)) (Mk2 (val2 Int)))))
 (declare-fun c_main_~i~6 () Int)
(declare-fun c_main_~j~6 () Int)
(declare-fun c_main_~k~6 () Int)
(assert
 (let (($x66 (<= c_main_~i~6 3)))
 (let (($x109 (exists ((v_nnf_96_st IntState) (val!39 Int) )(let ((?x56 (val2 v_nnf_96_st)))
 (let (($x115 (<= ?x56 4)))
 (let (($x41 (and (<= (+ ?x56 2) c_main_~k~6) (<= c_main_~j~6 (+ (* 2 ?x56) 2)) $x115)))
 (let (($x52 (not (= v_nnf_96_st (Mk1 val!39)))))
 (and $x52 $x41))))))
 ))
 (let (($x85 (<= c_main_~j~6 (+ (* 2 c_main_~i~6) 2))))
 (let (($x65 (<= c_main_~i~6 4)))
 (let (($x131 (<= c_main_~j~6 (+ (* 2 c_main_~i~6) 1))))
 (let (($x69 (exists ((v_nnf_98 Int) )(let (($x58 (<= c_main_~j~6 (+ (* 2 v_nnf_98) 2))))
 (let (($x83 (<= v_nnf_98 4)))
 (and (<= (+ v_nnf_98 3) c_main_~k~6) $x83 $x58))))
 ))
 (and (and $x131 $x65 $x85 $x66 $x69) (not (and $x131 $x65 $x85 $x109 $x66))))))))))
(check-sat)
